
Starting CP-SAT solver v9.15.6755
Parameters: random_seed: 2026073687 max_time_in_seconds: 2480.7313351215003 log_search_progress: true cp_model_presolve: true linearization_level: 2 num_search_workers: 4 cp_model_probing_level: 2 symmetry_level: 2

Initial satisfaction model '': (model_fingerprint: 0xdcca5a7da273eb68)
#Variables: 724 (608 primary variables)
  - 724 Booleans in [0,1]
#kBoolAnd: 110 (#enforced: 110) (#literals: 330)
#kBoolOr: 110 (#enforced: 110) (#literals: 220)
#kExactlyOne: 87 (#literals: 261)
#kLinear1: 32 (#enforced: 6)
#kLinear2: 336 (#enforced: 336) (#complex_domain: 110)
#kLinear3: 1'600 (#enforced: 6)
#kLinearN: 1'132 (#enforced: 243) (#terms: 9'111)

Starting presolve at 0.00s
  6.88e-04s  0.00e+00d  [DetectDominanceRelations] 
  8.89e-03s  0.00e+00d  [PresolveToFixPoint] #num_loops=3 #num_dual_strengthening=1 
  4.43e-05s  0.00e+00d  [ExtractEncodingFromLinear] #potential_supersets=86 
  3.19e-04s  0.00e+00d  [DetectDuplicateColumns] 
  9.96e-05s  0.00e+00d  [DetectDuplicateConstraints] #duplicates=5 
[Symmetry] Graph for symmetry has 4'868 nodes and 15'716 arcs.
[Symmetry] Symmetry computation done. time: 0.0014024 dtime: 0.00214882
[SAT presolve] num removable Booleans: 220 / 626
[SAT presolve] num trivial clauses: 0
[SAT presolve] [0s] clauses:2'728 literals:7'416 vars:506 one_side_vars:66 simple_definition:1 singleton_clauses:0
[SAT presolve] [0.000247942s] clauses:2'727 literals:7'409 vars:506 one_side_vars:66 simple_definition:1 singleton_clauses:0
[SAT presolve] [0.000612442s] clauses:2'406 literals:6'904 vars:389 one_side_vars:68 simple_definition:24 singleton_clauses:0
  1.41e-04s  0.00e+00d  [DetectDuplicateConstraintsWithDifferentEnforcements] #without_enforcements=1 
  5.81e-03s  2.79e-03d  [Probe] #probed=1'308 #fixed_bools=8 #equiv=7 #new_binary_clauses=1'024 
  5.65e-04s  4.68e-04d  [MaxClique] Merged 657 constraints with 1'440 literals into 574 constraints with 1'307 literals
  8.80e-04s  0.00e+00d  [DetectDominanceRelations] 
  3.23e-03s  0.00e+00d  [PresolveToFixPoint] #num_loops=1 #num_dual_strengthening=1 
  1.20e-03s  0.00e+00d  [ProcessAtMostOneAndLinear] 
  1.58e-04s  0.00e+00d  [DetectDuplicateConstraints] #duplicates=4 
  9.20e-05s  0.00e+00d  [DetectDuplicateConstraintsWithDifferentEnforcements] 
  3.76e-03s  1.13e-04d  [DetectDominatedLinearConstraints] #relevant_constraints=837 #num_inclusions=547 #num_redundant=6 
  1.30e-04s  0.00e+00d  [DetectDifferentVariables] 
  7.99e-04s  9.09e-05d  [ProcessSetPPC] #relevant_constraints=3'181 #num_inclusions=227 
  3.11e-04s  3.43e-05d  [TransformClausesToExactlyOne] #num_amos=590 #num_clauses=1'762 #num_checked=1'762 
  5.77e-05s  0.00e+00d  [DetectEncodedComplexDomains] 
  3.44e-05s  0.00e+00d  [FindAlmostIdenticalLinearConstraints] 
  9.53e-04s  1.48e-03d  [FindBigAtMostOneAndLinearOverlap] 
  1.42e-03s  1.11e-03d  [FindBigVerticalLinearOverlap] #blocks=6 #saved_nz=252 
  3.08e-04s  5.38e-04d  [FindBigHorizontalLinearOverlap] #linears=462 
  3.54e-04s  2.79e-05d  [MergeClauses] #num_collisions=7 #num_merges=7 #num_saved_literals=29 
  8.66e-04s  0.00e+00d  [DetectDominanceRelations] 
  3.19e-03s  0.00e+00d  [PresolveToFixPoint] #num_loops=2 #num_dual_strengthening=1 
  8.41e-04s  0.00e+00d  [DetectDominanceRelations] 
  3.05e-03s  0.00e+00d  [PresolveToFixPoint] #num_loops=1 #num_dual_strengthening=1 
  1.70e-04s  0.00e+00d  [DetectDuplicateColumns] 
  9.39e-05s  0.00e+00d  [DetectDuplicateConstraints] 
[Symmetry] Graph for symmetry has 4'517 nodes and 14'081 arcs.
[Symmetry] Symmetry computation done. time: 0.00106867 dtime: 0.00148458
[SAT presolve] num removable Booleans: 102 / 494
[SAT presolve] num trivial clauses: 0
[SAT presolve] [0s] clauses:2'299 literals:6'649 vars:464 one_side_vars:148 simple_definition:36 singleton_clauses:0
[SAT presolve] [0.000222895s] clauses:2'299 literals:6'490 vars:464 one_side_vars:162 simple_definition:82 singleton_clauses:0
[SAT presolve] [0.000357166s] clauses:2'162 literals:6'180 vars:458 one_side_vars:190 simple_definition:58 singleton_clauses:0
  1.70e-04s  0.00e+00d  [DetectDuplicateConstraintsWithDifferentEnforcements] 
  5.89e-03s  1.97e-03d  [Probe] #probed=1'300 #new_binary_clauses=817 
  4.41e-04s  3.62e-04d  [MaxClique] Merged 513 constraints with 1'130 literals into 509 constraints with 1'130 literals
  8.51e-04s  0.00e+00d  [DetectDominanceRelations] 
  3.08e-03s  0.00e+00d  [PresolveToFixPoint] #num_loops=1 #num_dual_strengthening=1 
  1.12e-03s  0.00e+00d  [ProcessAtMostOneAndLinear] 
  1.12e-04s  0.00e+00d  [DetectDuplicateConstraints] 
  9.85e-05s  0.00e+00d  [DetectDuplicateConstraintsWithDifferentEnforcements] 
  8.51e-04s  5.79e-05d  [DetectDominatedLinearConstraints] #relevant_constraints=835 #num_inclusions=326 
  1.30e-04s  0.00e+00d  [DetectDifferentVariables] 
  7.50e-04s  7.36e-05d  [ProcessSetPPC] #relevant_constraints=3'082 #num_inclusions=90 
  2.92e-04s  3.25e-05d  [TransformClausesToExactlyOne] #num_amos=509 #num_clauses=1'699 #num_checked=1'699 
  5.00e-05s  0.00e+00d  [DetectEncodedComplexDomains] 
  4.37e-05s  0.00e+00d  [FindAlmostIdenticalLinearConstraints] 
  8.40e-04s  1.14e-03d  [FindBigAtMostOneAndLinearOverlap] 
  1.25e-03s  9.89e-04d  [FindBigVerticalLinearOverlap] #blocks=1 #saved_nz=31 
  3.30e-04s  5.10e-04d  [FindBigHorizontalLinearOverlap] #linears=460 
  3.32e-04s  2.62e-05d  [MergeClauses] #num_collisions=74 #num_merges=74 #num_saved_literals=192 
  8.71e-04s  0.00e+00d  [DetectDominanceRelations] 
  3.12e-03s  0.00e+00d  [PresolveToFixPoint] #num_loops=2 #num_dual_strengthening=1 
  8.44e-04s  0.00e+00d  [DetectDominanceRelations] 
  3.05e-03s  0.00e+00d  [PresolveToFixPoint] #num_loops=1 #num_dual_strengthening=1 
  2.10e-04s  0.00e+00d  [DetectDuplicateColumns] 
  1.05e-04s  0.00e+00d  [DetectDuplicateConstraints] 
[Symmetry] Graph for symmetry has 4'315 nodes and 13'315 arcs.
[Symmetry] Symmetry computation done. time: 0.00100977 dtime: 0.00141926
[SAT presolve] num removable Booleans: 96 / 488
[SAT presolve] num trivial clauses: 0
[SAT presolve] [0s] clauses:2'153 literals:6'151 vars:458 one_side_vars:192 simple_definition:58 singleton_clauses:0
[SAT presolve] [0.000197709s] clauses:2'153 literals:6'151 vars:458 one_side_vars:192 simple_definition:58 singleton_clauses:0
[SAT presolve] [0.000271636s] clauses:2'153 literals:6'151 vars:458 one_side_vars:192 simple_definition:58 singleton_clauses:0
  1.70e-04s  0.00e+00d  [DetectDuplicateConstraintsWithDifferentEnforcements] 
  5.65e-03s  1.95e-03d  [Probe] #probed=1'300 #new_binary_clauses=816 
  4.29e-04s  3.59e-04d  [MaxClique] Merged 507 constraints with 1'118 literals into 506 constraints with 1'117 literals
  8.58e-04s  0.00e+00d  [DetectDominanceRelations] 
  3.20e-03s  0.00e+00d  [PresolveToFixPoint] #num_loops=1 #num_dual_strengthening=1 
  1.13e-03s  0.00e+00d  [ProcessAtMostOneAndLinear] 
  1.48e-04s  0.00e+00d  [DetectDuplicateConstraints] 
  1.01e-04s  0.00e+00d  [DetectDuplicateConstraintsWithDifferentEnforcements] 
  7.56e-04s  5.62e-05d  [DetectDominatedLinearConstraints] #relevant_constraints=836 #num_inclusions=316 
  1.42e-04s  0.00e+00d  [DetectDifferentVariables] 
  7.42e-04s  7.31e-05d  [ProcessSetPPC] #relevant_constraints=3'077 #num_inclusions=86 
  2.91e-04s  3.25e-05d  [TransformClausesToExactlyOne] #num_amos=506 #num_clauses=1'699 #num_checked=1'699 
  5.04e-05s  0.00e+00d  [DetectEncodedComplexDomains] 
  4.41e-05s  0.00e+00d  [FindAlmostIdenticalLinearConstraints] 
  8.17e-04s  1.10e-03d  [FindBigAtMostOneAndLinearOverlap] 
  1.25e-03s  9.51e-04d  [FindBigVerticalLinearOverlap] #blocks=3 #saved_nz=105 
  1.96e-04s  2.69e-04d  [FindBigHorizontalLinearOverlap] #linears=460 
  3.54e-04s  2.62e-05d  [MergeClauses] #num_collisions=74 #num_merges=74 #num_saved_literals=192 
  8.73e-04s  0.00e+00d  [DetectDominanceRelations] 
  3.16e-03s  0.00e+00d  [PresolveToFixPoint] #num_loops=2 #num_dual_strengthening=1 
  4.57e-05s  0.00e+00d  [MergeNoOverlap] 
  5.05e-05s  0.00e+00d  [MergeNoOverlap2D] 

Presolve summary:
  - 38 affine relations were detected.
  - rule 'TODO dual: only one blocking constraint?' was applied 871 times.
  - rule 'TODO linear inclusion: superset is equality' was applied 215 times.
  - rule 'affine: new relation' was applied 38 times.
  - rule 'at_most_one: removed literals' was applied 41 times.
  - rule 'at_most_one: size one' was applied 40 times.
  - rule 'at_most_one: transformed into max clique' was applied 3 times.
  - rule 'bool_or: implications' was applied 66 times.
  - rule 'bool_or: only one literal' was applied 12 times.
  - rule 'bool_or: removed enforcement literal' was applied 557 times.
  - rule 'deductions: 858 stored' was applied 1 time.
  - rule 'duplicate: merged rhs of linear constraint' was applied 8 times.
  - rule 'duplicate: removed constraint' was applied 9 times.
  - rule 'duplicate: removed enforced constraint' was applied 1 time.
  - rule 'enforcement: false literal' was applied 32 times.
  - rule 'enforcement: true literal' was applied 6 times.
  - rule 'exactly_one: removed literals' was applied 32 times.
  - rule 'exactly_one: satisfied' was applied 3 times.
  - rule 'exactly_one: singleton' was applied 2 times.
  - rule 'exactly_one: size two' was applied 30 times.
  - rule 'exactly_one: x and not(x)' was applied 4 times.
  - rule 'incompatible linear: add implication' was applied 132 times.
  - rule 'linear + amo: empty after processing' was applied 6 times.
  - rule 'linear + amo: extracted enforcement literal' was applied 52 times.
  - rule 'linear + amo: trivial linear constraint' was applied 1 time.
  - rule 'linear inclusion: redundant containing constraint' was applied 2 times.
  - rule 'linear inclusion: redundant included constraint' was applied 3 times.
  - rule 'linear inclusion: sparsify superset' was applied 1 time.
  - rule 'linear matrix: common vertical rectangle' was applied 10 times.
  - rule 'linear1: always true' was applied 1 time.
  - rule 'linear1: x in domain' was applied 26 times.
  - rule 'linear2: convert ax + by != cte to clauses' was applied 260 times.
  - rule 'linear2: convert implied ax + by == cte to clauses' was applied 114 times.
  - rule 'linear2: implied ax + by = cte has only one solution' was applied 8 times.
  - rule 'linear: always true' was applied 414 times.
  - rule 'linear: empty' was applied 3 times.
  - rule 'linear: enforcement literal in expression' was applied 2 times.
  - rule 'linear: extracted at most one (max)' was applied 1 time.
  - rule 'linear: fixed or dup variables' was applied 881 times.
  - rule 'linear: negative clause' was applied 1'293 times.
  - rule 'linear: negative reified and' was applied 78 times.
  - rule 'linear: never in domain' was applied 6 times.
  - rule 'linear: positive at most one' was applied 34 times.
  - rule 'linear: reduced variable domains' was applied 11 times.
  - rule 'linear: remapped using affine relations' was applied 26 times.
  - rule 'presolve: 74 unused variables removed.' was applied 1 time.
  - rule 'presolve: iteration' was applied 3 times.
  - rule 'probing: bool_or reduced to implication' was applied 25 times.
  - rule 'probing: simplified clauses' was applied 15 times.
  - rule 'setppc: bool_or in at_most_one' was applied 7 times.
  - rule 'setppc: removed dominated constraints' was applied 92 times.
  - rule 'variables: both boolean and its negation fix the same variable' was applied 1 time.
  - rule 'variables: detect half reified value encoding' was applied 2 times.

Presolved satisfaction model '': (model_fingerprint: 0x2da75e9309296840)
#Variables: 497 (426 primary variables)
  - 488 Booleans in [0,1]
  - 9 in [0,2]
#kAtMostOne: 54 (#literals: 213)
#kBoolAnd: 262 (#enforced: 262) (#literals: 714)
#kBoolAndClauses: 74 (#enforced: 74 #multi: 74) (#literals: 340)
#kBoolOr: 1'551 (#literals: 4'711)
#kExactlyOne: 54 (#literals: 202)
#kLinear3: 21 (#enforced: 14)
#kLinearN: 818 (#enforced: 120) (#terms: 5'626)
[Symmetry] Graph for symmetry has 4'087 nodes and 13'211 arcs.
[Symmetry] Symmetry computation done. time: 0.000847691 dtime: 0.00139578

Preloading model.
#Model   0.10s var:497/497 constraints:2834/2834

Starting search at 0.10s with 4 workers.
3 full problem subsolvers: [default_lp, max_lp, no_lp]
1 first solution subsolver: [fj]
2 interleaved subsolvers: [feasibility_pump, rins/rens]
2 helper subsolvers: [neighborhood_helper, synchronization_agent]

#Model  35.99s var:495/497 constraints:2814/2834
#Model 206.52s var:493/497 constraints:2810/2834
#Model 415.15s var:492/497 constraints:2808/2834
#Model 516.02s var:470/497 constraints:2701/2834
#Model 661.86s var:469/497 constraints:2684/2834
#Model 819.31s var:466/497 constraints:2666/2834
#Model 918.15s var:465/497 constraints:2647/2834
#Model 918.43s var:455/497 constraints:2575/2834
#Model 1299.87s var:452/497 constraints:2556/2834
#Model 1350.35s var:451/497 constraints:2556/2834
#Model 1499.28s var:450/497 constraints:2556/2834
#Model 1917.56s var:449/497 constraints:2540/2834
#Model 1969.43s var:448/497 constraints:2520/2834
#Model 1973.54s var:447/497 constraints:2501/2834
#Model 2006.56s var:443/497 constraints:2482/2834
#Model 2034.98s var:442/497 constraints:2462/2834
#Model 2038.62s var:441/497 constraints:2446/2834
#Model 2040.89s var:440/497 constraints:2429/2834
#Model 2045.51s var:439/497 constraints:2411/2834
#Model 2046.08s var:437/497 constraints:2407/2834
#Model 2046.37s var:436/497 constraints:2389/2834
#Model 2046.74s var:425/497 constraints:2288/2834
#Model 2047.17s var:422/497 constraints:2231/2834
#Model 2047.34s var:415/497 constraints:2147/2834
#Done  2047.37s no_lp

Task timing                   n [     min,      max]      avg      dev     time         n [     min,      max]      avg      dev    dtime
        'default_lp':         1 [  34.12m,   34.12m]   34.12m   0.00ns   34.12m         2 [  1.97ms,   31.28m]   15.64m   15.64m   31.28m
  'feasibility_pump':     10150 [810.40us, 172.26ms]   1.55ms   1.73ms   15.73s     10149 [278.65us, 152.99ms] 295.41us   1.52ms    3.00s
                'fj':      7122 [109.76ms, 233.58ms] 142.53ms  11.56ms   16.92m      7122 [ 98.73ms, 100.14ms] 100.02ms  19.55us   11.87m
            'max_lp':         1 [  34.12m,   34.12m]   34.12m   0.00ns   34.12m         2 [ 82.40ms,   40.02m]   20.01m   20.01m   40.03m
             'no_lp':         1 [  34.12m,   34.12m]   34.12m   0.00ns   34.12m         2 [  1.79ms,    1.03h]   30.98m   30.97m    1.03h
         'rins/rens':      8815 [818.54us, 231.36ms] 115.16ms  43.83ms   16.92m      8810 [165.16us, 100.31ms]  67.76ms  37.53ms    9.95m

Search stats     Bools   Conflicts    Branches  Restarts  BacktrackToRoot   Backtrack     BoolPropag  IntegerPropag
  'default_lp':    488     197'308   7'729'829     1'066        1'314'314   1'813'542     88'032'009     90'319'935
      'max_lp':    488     152'920   8'761'341       713        1'425'783   1'878'350     97'044'487    104'234'028
       'no_lp':    488  13'988'390  20'142'942    45'343          517'929  14'452'883  1'210'331'034    318'373'122

SAT formula      Fixed  Equiv  Total  VarLeft  BinaryClauses  PermanentClauses  TemporaryClauses
  'default_lp':     54      4    488      430          2'172            38'817             3'797
      'max_lp':     60      4    488      424          2'220            32'143             3'148
       'no_lp':    307      4    488      177          2'156            38'471               767

SAT stats        ClassicMinim   LitRemoved  LitRemovedBinary   LitLearned  LitForgotten   Subsumed
  'default_lp':       175'543    2'483'613         1'072'860    5'007'947     2'789'526     83'241
      'max_lp':       128'705    1'636'681           836'443    3'449'085     1'939'204     53'019
       'no_lp':    12'556'326  230'478'981        83'982'358  341'662'310   273'923'199  3'638'376

Vivification       Clauses  Decisions  LitTrue  Subsumed  LitRemoved  DecisionReused  Conflicts
  'default_lp':  1'402'857  7'278'809        0    24'123     255'673         423'482      2'586
      'max_lp':  1'471'853  8'320'765       41    28'472     305'763         437'100      3'073
       'no_lp':    424'232  3'439'782        5    26'701     371'303         110'398      2'369

Clause deletion    at_true  l_and_not(l)  to_binary  sub_conflict  sub_extra  sub_decisions  sub_eager  sub_vivify  sub_probing  sub_inpro  blocked  eliminated  forgotten    promoted   conflicts
    'default_lp':   17'314           359         70        82'026        425          3'103      1'215      24'123       11'503     22'722        0           0     83'139     365'695     197'308
        'max_lp':   17'670           231         79        52'498        405          1'508        521      28'472       15'591     24'386        0           0     67'592     290'437     152'920
         'no_lp':  133'093           625        366     3'574'877     30'433        156'518     63'499      26'701       26'188    153'807        0           0  9'792'421  31'794'177  13'988'390

Lp stats         Component  Iterations  AddedCuts  OPTIMAL  DUAL_F.  DUAL_U.
  'default_lp':          1  20'841'761     86'676  254'465        0  129'543
      'max_lp':          1  11'340'621     79'683   39'232  114'695   30'825

Lp dimension        Final dimension of first component
  'default_lp':    337 rows, 354 columns, 3027 entries
      'max_lp':  1224 rows, 497 columns, 10584 entries

Lp debug         CutPropag  CutEqPropag   Adjust  Overflow        Bad  BadScaling
  'default_lp':          0          145  129'538         0  2'201'058           0
      'max_lp':          0          373   30'814         0  2'403'883           0

Lp pool          Constraints  Updates  Simplif  Merged  Shortened  Split  Strengthened       Cuts/Call
  'default_lp':       10'466   21'090        0       0      1'892      0             0  86'676/206'740
      'max_lp':       12'860   34'238        0      11        397      0         1'552  79'683/201'029

Lp Cut            default_lp  max_lp
          CG_FF:       1'272     117
           CG_K:         699      12
          CG_KL:         681       3
           CG_R:       1'388      69
          CG_RB:          14      17
         CG_RBP:           2       4
         Clique:           -     474
             IB:         113       7
       MIR_1_FF:         571     760
        MIR_1_K:         128      45
       MIR_1_KL:         438      47
        MIR_1_R:         573     378
       MIR_1_RB:           -       4
      MIR_1_RBP:           -       2
      MIR_1_RLT:           -   7'981
       MIR_2_FF:         555     703
        MIR_2_K:         108     134
       MIR_2_KL:         324     104
        MIR_2_R:       1'047     769
       MIR_2_RB:           2      51
      MIR_2_RBP:           5       8
       MIR_3_FF:         215     205
        MIR_3_K:          39      27
       MIR_3_KL:          73      20
        MIR_3_R:         613     214
       MIR_3_RB:          11      41
      MIR_3_RBP:          12      11
       MIR_4_FF:          66      49
        MIR_4_K:          24      18
       MIR_4_KL:          27       2
        MIR_4_R:         462     134
       MIR_4_RB:          10      18
      MIR_4_RBP:          15       7
       MIR_5_FF:          16      19
        MIR_5_K:           6       7
       MIR_5_KL:           1       2
        MIR_5_R:         306     144
       MIR_5_RB:           7      14
      MIR_5_RBP:           9      13
       MIR_6_FF:          15       8
        MIR_6_K:           4       2
       MIR_6_KL:           2       -
        MIR_6_R:         225     142
       MIR_6_RB:          10      19
      MIR_6_RBP:           5       8
   ZERO_HALF_FF:         364     730
    ZERO_HALF_K:          76      94
   ZERO_HALF_KL:         111       2
    ZERO_HALF_R:      75'982  65'944
   ZERO_HALF_RB:          36      66
  ZERO_HALF_RBP:          14      34

LNS stats       Improv/Calls  Closed  Difficulty  TimeLimit
  'rins/rens':     8813/8813     50%    8.19e-01       0.10

LS stats                                    Batches  Restarts/Perturbs    LinMoves   GenMoves  CompoundMoves  Bactracks  WeightUpdates  ScoreComputed
                             'fj_restart':      380                100  11'172'992          0              0          0      9'550'086     25'564'758
                    'fj_restart_compound':      783                 95           0  9'231'082        276'846  4'476'931         29'777    144'952'812
                'fj_restart_compound_obj':      567                 96           0  6'662'738        268'035  3'197'170         19'081    104'891'791
            'fj_restart_compound_perturb':      387                 96           0  4'643'558        242'052  2'200'560         10'856     71'778'033
        'fj_restart_compound_perturb_obj':      354                110           0  4'194'678        247'023  1'973'583          9'319     65'877'340
                       'fj_restart_decay':      547                127  18'498'270          0              0          0        807'377     13'532'234
              'fj_restart_decay_compound':      434                 91           0  5'729'351        905'479  2'411'715          5'741     82'551'878
          'fj_restart_decay_compound_obj':      465                 93           0  6'124'423        958'305  2'582'822          6'182     87'818'976
      'fj_restart_decay_compound_perturb':      258                 92           0  3'264'821        515'168  1'374'566          3'562     48'731'664
  'fj_restart_decay_compound_perturb_obj':      221                 86           0  2'740'863        430'954  1'154'785          3'043     41'591'281
                   'fj_restart_decay_obj':      347                 92  11'623'482          0              0          0        515'708      8'654'357
               'fj_restart_decay_perturb':      300                115  10'110'130          0              0          0        443'469      7'429'325
           'fj_restart_decay_perturb_obj':      454                 93  15'228'432          0              0          0        674'374     11'316'463
                         'fj_restart_obj':      642                103  17'477'898          0              0          0     16'662'692     45'058'450
                     'fj_restart_perturb':      604                105  16'670'473          0              0          0     16'754'972     40'618'725
                 'fj_restart_perturb_obj':      379                102  10'766'666          0              0          0      9'740'214     25'074'223

Solution repositories    Added  Queried  Synchro
    'alternative_path':      0        0        0
      'best_solutions':      0        0        0
   'fj solution hints':  1'588        0    1'588
        'lp solutions':  1'525    8'815    1'525
                'pump':      0        0

Improving bounds shared    Num  Sym
            'default_lp':   36    0
                'max_lp':   11    0
                 'no_lp':  166    0

Clauses shared    #Exported  #Imported  #BinaryRead  #BinaryTotal
   'default_lp':      7'071     91'577          916         1'435
       'max_lp':      8'029     92'841        1'000         1'435
        'no_lp':     90'907     13'632        1'435         1'435

LRAT_status: NA
CpSolverResponse summary:
status: INFEASIBLE
objective: NA
best_bound: NA
integers: 354
booleans: 488
conflicts: 13988390
branches: 20142942
propagations: 1210331034
integer_propagations: 318373122
restarts: 45343
lp_iterations: 0
walltime: 2047.4
usertime: 2047.4
deterministic_time: 9307.55
gap_integral: 0

{
  "board_size": 22,
  "parity_proved": 0,
  "target": 34,
  "child_id": 1587,
  "child_count": 2640,
  "partition": "unknown_pair_x_diag_plus_twos_x_diag_minus_twos",
  "build_seconds": 0.08014178276062012,
  "workers": 4,
  "requested_seed": 2026073687,
  "effective_seed": 2026073687,
  "main_diagonal_pair": [
    3,
    18
  ],
  "pair_index": 71,
  "diag_plus_twos": 17,
  "diag_minus_twos": 15,
  "pair_excess": 0,
  "residual_certificate_slack": 112,
  "analytic_minimum_line_defect": 22,
  "analytic_defect_details": {
    "row_costs": {
      "12": 6,
      "13": 3,
      "14": 0,
      "15": 0,
      "16": 0,
      "17": 0
    },
    "column_costs": {
      "12": 6,
      "13": 3,
      "14": 0,
      "15": 0,
      "16": 0,
      "17": 0
    },
    "plus_cost": 0,
    "minus_cost": 22,
    "row_column_minimum": 0
  },
  "maximal_line_constraints": 2455,
  "analytic_infeasible": false,
  "allowed_points": 242,
  "status": "INFEASIBLE",
  "proof_method": "cp_sat_all_lines_with_certificate_profile_cuts",
  "elapsed_seconds": 2047.402756690979,
  "branches": 20142942,
  "conflicts": 13988390
}
